(declare-const a Real)
(declare-const b Real)
(declare-const c Real)
(assert (= (+ a b c) 3))
(assert (> a 0))
(assert (> b 0))
(assert (> c 0))
(assert (not (<= (+ (/ -3 4) (* 3 a (pow (* (+ 2 (pow c 2)) (+ 1 (pow a 2) (pow b 2))) (/ 1 2)) (pow (+ (pow b 2) (pow c 2) (* 22 (pow a 2)) (* 2 b c) (* 5 a b) (* 5 a c)) -1)) (* 3 b (pow (+ (pow a 2) (pow c 2) (* 22 (pow b 2)) (* 2 a c) (* 5 a b) (* 5 b c)) -1) (+ a b c)) (* 3 c (pow (+ (pow a 2) (pow b 2) (* 22 (pow c 2)) (* 2 a b) (* 5 a c) (* 5 b c)) -1) (+ a b c))) 0)))
(check-sat)
(get-model)
(exit)